(set-logic ALL)
(declare-const BAV1 Bool)
(declare-const BAV2 Bool)
(declare-const BAV3 Bool)
(declare-const BAV4 Bool)
(declare-const BAV5 Bool)
(declare-const GEN7 String)
(declare-const GEN6 String)
(declare-const GEN5 String)
(declare-const GEN4 String)
(declare-const GEN3 String)
(declare-const GEN2 String)
(declare-const GEN1 String)
(declare-fun x () String)
(declare-fun y () String)
(declare-fun z () String)
(assert (= (str.rev "ABC") GEN2))
(assert (= (str.rev "") GEN4))
(assert (= (str.rev GEN5) x))
(assert (= (str.rev (str.++ x y)) GEN6))
(assert (= (str.rev GEN7) y))
(assert (= BAV1 (= (str.rev "ABC") GEN2)))
(assert (= BAV2 (= (str.rev "") GEN4)))
(assert (= BAV3 (= (str.rev GEN5) x)))
(assert (= BAV4 (= (str.rev (str.++ x y)) GEN6)))
(assert (= BAV5 (= (str.rev GEN7) y)))
(check-sat)
(get-model)